10 10 10
50
8 7 3
1 7 1
8 1 1
6 4 4
4 8 4
8 10 3
1 5 6
4 4 10
7 8 3
9 5 2
1 1 8
1 7 1
4 5 7
4 6 4
8 2 5
5 5 9
7 4 3
3 7 5
8 2 2
5 6 7
6 10 10
5 8 9
2 2 3
4 8 6
3 8 3
10 3 5
1 2 8
3 6 10
7 2 6
8 2 9
9 8 8
5 4 1
10 1 1
8 3 6
7 7 10
4 1 10
3 1 8
3 4 1
7 1 9
1 9 4
7 3 5
1 4 4
3 2 2
3 7 6
7 10 5
8 9 7
2 10 8
4 10 2
7 6 10
4 4 7
